(set-logic HORN)
(declare-datatypes ((Nat_1 0)) (((Z_3 ) (Z_4 (unS_0 Nat_1)))))
(declare-datatypes ((list_0 0)) (((nil_0 ) (cons_0 (head_0 Nat_1) (tail_0 list_0)))))
(declare-datatypes ((Nat_0 0)) (((Z_0 ) (S_0 (projS_0 Nat_0)))))
(declare-fun diseqNat_0 (Nat_0 Nat_0) Bool)
(declare-fun qrev_0 (list_0 list_0 list_0) Bool)
(declare-fun length_0 (Nat_0 list_0) Bool)
(declare-fun x_2 (Nat_0 Nat_0 Nat_0) Bool)
(assert (forall ((x_38 Nat_0))
	(diseqNat_0 Z_0 (S_0 x_38))))
(assert (forall ((x_39 Nat_0))
	(diseqNat_0 (S_0 x_39) Z_0)))
(assert (forall ((x_40 Nat_0) (x_41 Nat_0))
	(=> (diseqNat_0 x_40 x_41) (diseqNat_0 (S_0 x_40) (S_0 x_41)))))
(assert (forall ((x_5 list_0) (z_1 Nat_1) (xs_0 list_0) (y_0 list_0))
	(=> (qrev_0 x_5 xs_0 (cons_0 z_1 y_0)) (qrev_0 x_5 (cons_0 z_1 xs_0) y_0))))
(assert (forall ((x_7 list_0))
	(qrev_0 x_7 nil_0 x_7)))
(assert (forall ((x_9 Nat_0) (y_1 Nat_1) (xs_1 list_0))
	(=> (length_0 x_9 xs_1) (length_0 (S_0 x_9) (cons_0 y_1 xs_1)))))
(assert (length_0 Z_0 nil_0))
(assert (forall ((x_12 Nat_0) (z_2 Nat_0) (y_2 Nat_0))
	(=> (x_2 x_12 z_2 y_2) (x_2 (S_0 x_12) (S_0 z_2) y_2))))
(assert (forall ((x_13 Nat_0))
	(x_2 x_13 Z_0 x_13)))
(assert (forall ((x_14 list_0) (x_15 Nat_0) (x_16 Nat_0) (x_17 Nat_0) (x_18 Nat_0) (x_4 list_0) (y_3 list_0))
	(=> (and (diseqNat_0 x_15 x_18) (qrev_0 x_14 x_4 y_3) (length_0 x_15 x_14) (length_0 x_16 x_4) (length_0 x_17 y_3) (x_2 x_18 x_16 x_17)) false)))
(check-sat)
(get-model)
